(set-info :smt-lib-version 2.6)
(set-logic LIA)
(set-info
  :source |
 Generated by PSyCO 0.1
 More info in N. P. Lopes and J. Monteiro. Weakest Precondition Synthesis for
 Compiler Optimizations, VMCAI'14.
|)
(set-info :category "industrial")
(set-info :status sat)
(declare-fun R_E1_V4 () Bool)
(declare-fun W_S1_V4 () Bool)
(declare-fun R_E1_V5 () Bool)
(declare-fun W_S1_V5 () Bool)
(declare-fun W_S2_V5 () Bool)
(declare-fun W_S2_V2 () Bool)
(declare-fun W_S2_V3 () Bool)
(declare-fun W_S2_V1 () Bool)
(declare-fun R_S2_V4 () Bool)
(declare-fun R_S2_V5 () Bool)
(declare-fun R_S2_V2 () Bool)
(declare-fun R_S2_V3 () Bool)
(declare-fun R_S2_V1 () Bool)
(declare-fun R_S1_V4 () Bool)
(declare-fun R_S1_V5 () Bool)
(declare-fun R_S1_V2 () Bool)
(declare-fun R_S1_V3 () Bool)
(declare-fun R_S1_V1 () Bool)
(declare-fun R_E1_V2 () Bool)
(declare-fun DISJ_W_S2_R_E1 () Bool)
(declare-fun DISJ_W_S2_R_S2 () Bool)
(declare-fun DISJ_W_S2_R_S1 () Bool)
(declare-fun DISJ_W_S1_W_S2 () Bool)
(declare-fun R_E1_V3 () Bool)
(declare-fun DISJ_W_S1_R_S2 () Bool)
(declare-fun DISJ_W_S1_R_S1 () Bool)
(declare-fun W_S2_V4 () Bool)
(declare-fun W_S1_V3 () Bool)
(declare-fun W_S1_V2 () Bool)
(declare-fun W_S1_V1 () Bool)
(declare-fun R_E1_V1 () Bool)
(declare-fun DISJ_W_S1_R_E1 () Bool)
(assert
 (let (($x51 (and W_S1_V4 R_E1_V4)))
 (let (($x2796 (not $x51)))
 (let (($x49 (and W_S1_V5 R_E1_V5)))
 (let (($x3046 (not $x49)))
 (let
 (($x3462
   (forall
    ((V3_0 Int) (V2_0 Int) 
     (V5_0 Int) (V4_0 Int) 
     (MW_S1_V1 Bool) (MW_S1_V3 Bool) 
     (MW_S1_V2 Bool) (MW_S1_V5 Bool) 
     (MW_S1_V4 Bool) (MW_S2_V1 Bool) 
     (MW_S2_V3 Bool) (MW_S2_V2 Bool) 
     (MW_S2_V5 Bool) (MW_S2_V4 Bool) 
     (S1_V1_!2447 Int) (S1_V1_!2457 Int) 
     (S1_V1_!2468 Int) (S2_V5_!2455 Int) 
     (S2_V5_!2465 Int) (S2_V5_!2477 Int) 
     (S2_V5_!2482 Int) (S1_V3_!2448 Int) 
     (S1_V3_!2458 Int) (S1_V3_!2469 Int) 
     (S1_V2_!2449 Int) (S1_V2_!2459 Int) 
     (S1_V2_!2470 Int) (E1_!2446 Int) 
     (E1_!2467 Int) (E1_!2473 Int) 
     (S2_V4_!2456 Int) (S2_V4_!2466 Int) 
     (S2_V4_!2478 Int) (S2_V4_!2483 Int) 
     (S1_V5_!2450 Int) (S1_V5_!2460 Int) 
     (S1_V5_!2471 Int) (S2_V1_!2452 Int) 
     (S2_V1_!2462 Int) (S2_V1_!2474 Int) 
     (S2_V1_!2479 Int) (S1_V4_!2451 Int) 
     (S1_V4_!2461 Int) (S1_V4_!2472 Int) 
     (S2_V2_!2454 Int) (S2_V2_!2464 Int) 
     (S2_V2_!2476 Int) (S2_V2_!2481 Int) 
     (S2_V3_!2453 Int) (S2_V3_!2463 Int) 
     (S2_V3_!2475 Int) (S2_V3_!2480 Int))
    (let ((?x3637 (ite MW_S1_V4 S1_V4_!2472 V4_0)))
    (let ((?x2922 (ite MW_S2_V4 S2_V4_!2483 ?x3637)))
    (let ((?x2991 (ite MW_S1_V4 S1_V4_!2451 V4_0)))
    (let ((?x2923 (ite MW_S2_V4 S2_V4_!2456 ?x2991)))
    (let ((?x3255 (ite MW_S1_V4 S1_V4_!2461 ?x2923)))
    (let ((?x2548 (ite MW_S2_V4 S2_V4_!2466 ?x3255)))
    (let (($x2590 (= ?x2548 ?x2922)))
    (let ((?x3303 (ite MW_S1_V5 S1_V5_!2471 V5_0)))
    (let ((?x3086 (ite MW_S2_V5 S2_V5_!2482 ?x3303)))
    (let ((?x3355 (ite MW_S1_V5 S1_V5_!2450 V5_0)))
    (let ((?x2614 (ite MW_S2_V5 S2_V5_!2455 ?x3355)))
    (let ((?x3545 (ite MW_S1_V5 S1_V5_!2460 ?x2614)))
    (let ((?x2202 (ite MW_S2_V5 S2_V5_!2465 ?x3545)))
    (let (($x3321 (= ?x2202 ?x3086)))
    (let ((?x2455 (ite MW_S1_V2 S1_V2_!2470 V2_0)))
    (let ((?x3368 (ite MW_S2_V2 S2_V2_!2481 ?x2455)))
    (let ((?x2904 (ite MW_S1_V2 S1_V2_!2449 V2_0)))
    (let ((?x2846 (ite MW_S2_V2 S2_V2_!2454 ?x2904)))
    (let ((?x3414 (ite MW_S1_V2 S1_V2_!2459 ?x2846)))
    (let ((?x2463 (ite MW_S2_V2 S2_V2_!2464 ?x3414)))
    (let (($x3497 (= ?x2463 ?x3368)))
    (let ((?x2679 (ite MW_S1_V3 S1_V3_!2469 V3_0)))
    (let ((?x2203 (ite MW_S2_V3 S2_V3_!2480 ?x2679)))
    (let ((?x3384 (ite MW_S1_V3 S1_V3_!2448 V3_0)))
    (let ((?x2870 (ite MW_S2_V3 S2_V3_!2453 ?x3384)))
    (let ((?x3272 (ite MW_S1_V3 S1_V3_!2458 ?x2870)))
    (let ((?x3363 (ite MW_S2_V3 S2_V3_!2463 ?x3272)))
    (let (($x2653 (= ?x3363 ?x2203)))
    (let ((?x2975 (ite MW_S2_V1 S2_V1_!2474 E1_!2473)))
    (let ((?x3074 (+ 1 ?x2975)))
    (let ((?x3454 (ite MW_S2_V1 S2_V1_!2479 ?x3074)))
    (let ((?x3583 (ite MW_S1_V1 S1_V1_!2447 E1_!2446)))
    (let ((?x2771 (ite MW_S2_V1 S2_V1_!2452 ?x3583)))
    (let ((?x2861 (+ 1 ?x2771)))
    (let ((?x3185 (ite MW_S1_V1 S1_V1_!2457 ?x2861)))
    (let ((?x3262 (ite MW_S2_V1 S2_V1_!2462 ?x3185)))
    (let (($x3126 (= ?x3262 ?x3454)))
    (let (($x3093 (and $x3126 $x2653 $x3497 $x3321 $x2590)))
    (let ((?x2912 (+ (- 1) ?x3368)))
    (let (($x2654 (>= ?x3454 ?x2912)))
    (let ((?x2818 (ite MW_S2_V2 S2_V2_!2476 ?x2455)))
    (let (($x2607 (<= ?x2818 ?x3074)))
    (let (($x3244 (not $x2607)))
    (let (($x3165 (<= ?x2455 E1_!2473)))
    (let (($x3407 (not $x3165)))
    (let ((?x2610 (+ (- 1) ?x2455)))
    (let ((?x2568 (ite MW_S1_V1 S1_V1_!2468 E1_!2467)))
    (let (($x2820 (>= ?x2568 ?x2610)))
    (let (($x2945 (<= V2_0 E1_!2467)))
    (let (($x2960 (not $x2945)))
    (let ((?x3376 (+ (- 1) ?x2463)))
    (let (($x3350 (>= ?x3262 ?x3376)))
    (let (($x2439 (<= ?x2846 ?x2861)))
    (let (($x2815 (not $x2439)))
    (let (($x2685 (<= V2_0 E1_!2446)))
    (let (($x2753 (not $x2685)))
    (let
    (($x2492 (and $x2753 $x2815 $x3350 $x2960 $x2820 $x3407 $x3244 $x2654)))
    (let (($x3094 (not $x2492)))
    (let (($x2871 (not MW_S2_V5)))
    (let (($x2550 (or $x2871 W_S2_V5)))
    (let (($x2682 (not MW_S2_V2)))
    (let (($x3459 (or $x2682 W_S2_V2)))
    (let (($x3025 (not MW_S2_V3)))
    (let (($x3240 (or $x3025 W_S2_V3)))
    (let (($x2453 (not MW_S2_V1)))
    (let (($x2661 (or $x2453 W_S2_V1)))
    (let (($x2955 (not MW_S1_V4)))
    (let (($x2811 (or $x2955 W_S1_V4)))
    (let (($x2772 (not MW_S1_V5)))
    (let (($x3256 (or $x2772 W_S1_V5)))
    (let (($x2199 (not MW_S1_V2)))
    (let (($x2609 (not MW_S1_V1)))
    (let (($x2849 (= S2_V3_!2475 S2_V3_!2480)))
    (let ((?x2616 (ite MW_S2_V4 S2_V4_!2478 ?x3637)))
    (let (($x3075 (= ?x3637 ?x2616)))
    (let (($x223 (not R_S2_V4)))
    (let (($x2709 (or $x223 $x3075)))
    (let ((?x3403 (ite MW_S2_V5 S2_V5_!2477 ?x3303)))
    (let (($x3310 (= ?x3303 ?x3403)))
    (let (($x221 (not R_S2_V5)))
    (let (($x3071 (or $x221 $x3310)))
    (let (($x2832 (= ?x2455 ?x2818)))
    (let (($x219 (not R_S2_V2)))
    (let (($x3020 (or $x219 $x2832)))
    (let ((?x3609 (ite MW_S2_V3 S2_V3_!2475 ?x2679)))
    (let (($x2989 (= ?x2679 ?x3609)))
    (let (($x217 (not R_S2_V3)))
    (let (($x2645 (or $x217 $x2989)))
    (let (($x3155 (= E1_!2473 ?x3074)))
    (let (($x215 (not R_S2_V1)))
    (let (($x3072 (or $x215 $x3155)))
    (let (($x2545 (and $x3072 $x2645 $x3020 $x3071 $x2709)))
    (let (($x2987 (not $x2545)))
    (let (($x2621 (or $x2987 $x2849)))
    (let (($x2801 (= S2_V3_!2475 S2_V3_!2463)))
    (let (($x2760 (= ?x3637 ?x3255)))
    (let (($x2702 (or $x223 $x2760)))
    (let (($x2969 (= ?x3303 ?x3545)))
    (let (($x3551 (or $x221 $x2969)))
    (let (($x2750 (= ?x2455 ?x3414)))
    (let (($x3307 (or $x219 $x2750)))
    (let (($x2841 (= ?x2679 ?x3272)))
    (let (($x3399 (or $x217 $x2841)))
    (let (($x3261 (= E1_!2473 ?x3185)))
    (let (($x3421 (or $x215 $x3261)))
    (let (($x2731 (and $x3421 $x3399 $x3307 $x3551 $x2702)))
    (let (($x3095 (not $x2731)))
    (let (($x3084 (or $x3095 $x2801)))
    (let (($x2694 (= S2_V3_!2475 S2_V3_!2453)))
    (let (($x2651 (= ?x3637 ?x2991)))
    (let (($x2711 (or $x223 $x2651)))
    (let (($x2440 (= ?x3303 ?x3355)))
    (let (($x2752 (or $x221 $x2440)))
    (let (($x2759 (= ?x2455 ?x2904)))
    (let (($x2891 (or $x219 $x2759)))
    (let (($x2757 (= ?x2679 ?x3384)))
    (let (($x2680 (or $x217 $x2757)))
    (let (($x3451 (= E1_!2473 ?x3583)))
    (let (($x2995 (or $x215 $x3451)))
    (let (($x3206 (and $x2995 $x2680 $x2891 $x2752 $x2711)))
    (let (($x2742 (not $x3206)))
    (let (($x2570 (or $x2742 $x2694)))
    (let (($x3098 (= S2_V3_!2463 S2_V3_!2480)))
    (let (($x2572 (= ?x3255 ?x2616)))
    (let (($x3543 (or $x223 $x2572)))
    (let (($x2589 (= ?x3545 ?x3403)))
    (let (($x2571 (or $x221 $x2589)))
    (let (($x3070 (= ?x3414 ?x2818)))
    (let (($x2520 (or $x219 $x3070)))
    (let (($x3006 (= ?x3272 ?x3609)))
    (let (($x3119 (or $x217 $x3006)))
    (let (($x3228 (= ?x3185 ?x3074)))
    (let (($x2783 (or $x215 $x3228)))
    (let (($x3115 (and $x2783 $x3119 $x2520 $x2571 $x3543)))
    (let (($x3081 (not $x3115)))
    (let (($x3237 (or $x3081 $x3098)))
    (let (($x3601 (= S2_V3_!2463 S2_V3_!2453)))
    (let (($x3042 (= ?x3255 ?x2991)))
    (let (($x2888 (or $x223 $x3042)))
    (let (($x3111 (= ?x3545 ?x3355)))
    (let (($x3524 (or $x221 $x3111)))
    (let (($x2577 (= ?x3414 ?x2904)))
    (let (($x2856 (or $x219 $x2577)))
    (let (($x3440 (= ?x3272 ?x3384)))
    (let (($x2777 (or $x217 $x3440)))
    (let (($x2676 (= ?x3185 ?x3583)))
    (let (($x3107 (or $x215 $x2676)))
    (let (($x2980 (and $x3107 $x2777 $x2856 $x3524 $x2888)))
    (let (($x3562 (not $x2980)))
    (let (($x3021 (or $x3562 $x3601)))
    (let (($x3196 (= S2_V3_!2453 S2_V3_!2480)))
    (let (($x2619 (= ?x2991 ?x2616)))
    (let (($x2205 (or $x223 $x2619)))
    (let (($x3344 (= ?x3355 ?x3403)))
    (let (($x3132 (or $x221 $x3344)))
    (let (($x2549 (= ?x2904 ?x2818)))
    (let (($x3353 (or $x219 $x2549)))
    (let (($x2501 (= ?x3384 ?x3609)))
    (let (($x4130 (or $x217 $x2501)))
    (let (($x3007 (= ?x3583 ?x3074)))
    (let (($x3027 (or $x215 $x3007)))
    (let (($x4211 (and $x3027 $x4130 $x3353 $x3132 $x2205)))
    (let (($x3291 (not $x4211)))
    (let (($x3009 (or $x3291 $x3196)))
    (let (($x3632 (= S2_V2_!2481 S2_V2_!2476)))
    (let (($x4091 (= ?x2616 ?x3637)))
    (let (($x3743 (or $x223 $x4091)))
    (let (($x3536 (= ?x3403 ?x3303)))
    (let (($x3325 (or $x221 $x3536)))
    (let (($x3851 (= ?x2818 ?x2455)))
    (let (($x3978 (or $x219 $x3851)))
    (let (($x3687 (= ?x3609 ?x2679)))
    (let (($x3434 (or $x217 $x3687)))
    (let ((?x2864 (+ (- 1) E1_!2473)))
    (let (($x3664 (= ?x2975 ?x2864)))
    (let (($x3844 (or $x215 $x3664)))
    (let (($x3842 (and $x3844 $x3434 $x3978 $x3325 $x3743)))
    (let (($x4066 (not $x3842)))
    (let (($x4079 (or $x4066 $x3632)))
    (let (($x4012 (= S2_V2_!2481 S2_V2_!2464)))
    (let (($x3984 (= ?x2616 ?x3255)))
    (let (($x3946 (or $x223 $x3984)))
    (let (($x3982 (= ?x3403 ?x3545)))
    (let (($x3990 (or $x221 $x3982)))
    (let (($x3770 (= ?x2818 ?x3414)))
    (let (($x3224 (or $x219 $x3770)))
    (let (($x3548 (= ?x3609 ?x3272)))
    (let (($x3139 (or $x217 $x3548)))
    (let ((?x2735 (+ (- 1) ?x3185)))
    (let (($x3178 (= ?x2975 ?x2735)))
    (let (($x3295 (or $x215 $x3178)))
    (let (($x2509 (and $x3295 $x3139 $x3224 $x3990 $x3946)))
    (let (($x3265 (not $x2509)))
    (let (($x3162 (or $x3265 $x4012)))
    (let (($x3948 (= S2_V2_!2464 S2_V2_!2476)))
    (let (($x3772 (= ?x3255 ?x3637)))
    (let (($x3867 (or $x223 $x3772)))
    (let (($x3773 (= ?x3545 ?x3303)))
    (let (($x3893 (or $x221 $x3773)))
    (let (($x3130 (= ?x3414 ?x2455)))
    (let (($x2978 (or $x219 $x3130)))
    (let (($x3285 (= ?x3272 ?x2679)))
    (let (($x3774 (or $x217 $x3285)))
    (let (($x2491 (= ?x3185 E1_!2473)))
    (let (($x2768 (or $x215 $x2491)))
    (let (($x2551 (and $x2768 $x3774 $x2978 $x3893 $x3867)))
    (let (($x3555 (not $x2551)))
    (let (($x3069 (or $x3555 $x3948)))
    (let (($x4127 (= S2_V2_!2454 S2_V2_!2481)))
    (let (($x3888 (or $x3291 $x4127)))
    (let (($x3969 (= S2_V2_!2454 S2_V2_!2476)))
    (let (($x4174 (= ?x2991 ?x3637)))
    (let (($x4110 (or $x223 $x4174)))
    (let (($x3616 (= ?x3355 ?x3303)))
    (let (($x2944 (or $x221 $x3616)))
    (let (($x3157 (= ?x2904 ?x2455)))
    (let (($x3431 (or $x219 $x3157)))
    (let (($x4245 (= ?x3384 ?x2679)))
    (let (($x4243 (or $x217 $x4245)))
    (let (($x3813 (= ?x3583 E1_!2473)))
    (let (($x3861 (or $x215 $x3813)))
    (let (($x3534 (and $x3861 $x4243 $x3431 $x2944 $x4110)))
    (let (($x3847 (not $x3534)))
    (let (($x3970 (or $x3847 $x3969)))
    (let (($x3884 (= S2_V2_!2454 S2_V2_!2464)))
    (let (($x4249 (= ?x2991 ?x3255)))
    (let (($x3997 (or $x223 $x4249)))
    (let (($x2808 (= ?x3355 ?x3545)))
    (let (($x3179 (or $x221 $x2808)))
    (let (($x3768 (= ?x2904 ?x3414)))
    (let (($x3662 (or $x219 $x3768)))
    (let (($x4255 (= ?x3384 ?x3272)))
    (let (($x4030 (or $x217 $x4255)))
    (let (($x2805 (= ?x3583 ?x3185)))
    (let (($x2481 (or $x215 $x2805)))
    (let (($x2868 (and $x2481 $x4030 $x3662 $x3179 $x3997)))
    (let (($x3289 (not $x2868)))
    (let (($x2734 (or $x3289 $x3884)))
    (let (($x3217 (= S1_V4_!2472 S1_V4_!2461)))
    (let (($x3694 (= V4_0 ?x2923)))
    (let (($x210 (not R_S1_V4)))
    (let (($x3767 (or $x210 $x3694)))
    (let (($x3360 (= V5_0 ?x2614)))
    (let (($x208 (not R_S1_V5)))
    (let (($x3690 (or $x208 $x3360)))
    (let (($x4064 (= V2_0 ?x2846)))
    (let (($x206 (not R_S1_V2)))
    (let (($x4056 (or $x206 $x4064)))
    (let (($x3365 (= V3_0 ?x2870)))
    (let (($x204 (not R_S1_V3)))
    (let (($x3737 (or $x204 $x3365)))
    (let (($x3715 (= E1_!2467 ?x2861)))
    (let (($x202 (not R_S1_V1)))
    (let (($x3735 (or $x202 $x3715)))
    (let (($x3874 (and $x3735 $x3737 $x4056 $x3690 $x3767)))
    (let (($x3803 (not $x3874)))
    (let (($x3926 (or $x3803 $x3217)))
    (let (($x3998 (= S1_V4_!2451 S1_V4_!2472)))
    (let (($x4273 (= E1_!2446 E1_!2467)))
    (let (($x3840 (or $x202 $x4273)))
    (let (($x2507 (not $x3840)))
    (let (($x3500 (or $x2507 $x3998)))
    (let (($x4117 (= S1_V4_!2451 S1_V4_!2461)))
    (let (($x4305 (= E1_!2446 ?x2861)))
    (let (($x2729 (or $x202 $x4305)))
    (let (($x3911 (and $x2729 $x3737 $x4056 $x3690 $x3767)))
    (let (($x3317 (not $x3911)))
    (let (($x3933 (or $x3317 $x4117)))
    (let (($x4077 (= S2_V1_!2474 S2_V1_!2479)))
    (let (($x3504 (or $x2987 $x4077)))
    (let (($x2558 (= S2_V1_!2474 S2_V1_!2462)))
    (let (($x3105 (or $x3095 $x2558)))
    (let (($x4133 (= S2_V1_!2474 S2_V1_!2452)))
    (let (($x4131 (or $x2742 $x4133)))
    (let (($x4139 (= S2_V1_!2462 S2_V1_!2479)))
    (let (($x3014 (or $x3081 $x4139)))
    (let (($x3809 (= S2_V1_!2462 S2_V1_!2452)))
    (let (($x3200 (or $x3562 $x3809)))
    (let (($x3962 (= S2_V1_!2452 S2_V1_!2479)))
    (let (($x3881 (or $x3291 $x3962)))
    (let (($x4038 (= S1_V5_!2471 S1_V5_!2460)))
    (let (($x3805 (or $x3803 $x4038)))
    (let (($x3918 (= S1_V5_!2471 S1_V5_!2450)))
    (let (($x3835 (= E1_!2467 E1_!2446)))
    (let (($x3594 (or $x202 $x3835)))
    (let (($x4279 (not $x3594)))
    (let (($x4277 (or $x4279 $x3918)))
    (let (($x3913 (= S1_V5_!2450 S1_V5_!2460)))
    (let (($x4059 (or $x3317 $x3913)))
    (let (($x3592 (= S2_V4_!2483 S2_V4_!2456)))
    (let (($x3854 (= ?x2616 ?x2991)))
    (let (($x3928 (or $x223 $x3854)))
    (let (($x3885 (= ?x3403 ?x3355)))
    (let (($x3634 (or $x221 $x3885)))
    (let (($x3757 (= ?x2818 ?x2904)))
    (let (($x3758 (or $x219 $x3757)))
    (let (($x3898 (= ?x3609 ?x3384)))
    (let (($x3896 (or $x217 $x3898)))
    (let ((?x3889 (+ (- 1) ?x3583)))
    (let (($x3346 (= ?x2975 ?x3889)))
    (let (($x4003 (or $x215 $x3346)))
    (let (($x3974 (and $x4003 $x3896 $x3758 $x3634 $x3928)))
    (let (($x2994 (not $x3974)))
    (let (($x3164 (or $x2994 $x3592)))
    (let (($x4115 (= S2_V4_!2478 S2_V4_!2483)))
    (let (($x4103 (or $x2987 $x4115)))
    (let (($x4099 (= S2_V4_!2478 S2_V4_!2456)))
    (let (($x4095 (or $x2742 $x4099)))
    (let (($x4101 (= S2_V4_!2466 S2_V4_!2483)))
    (let (($x3304 (or $x3081 $x4101)))
    (let (($x4229 (= S2_V4_!2466 S2_V4_!2478)))
    (let (($x3342 (or $x3555 $x4229)))
    (let (($x4019 (= S2_V4_!2466 S2_V4_!2456)))
    (let (($x3124 (or $x3562 $x4019)))
    (let (($x4160 (= E1_!2467 E1_!2473)))
    (let (($x4039 (= V4_0 ?x3637)))
    (let (($x158 (not R_E1_V4)))
    (let (($x4054 (or $x158 $x4039)))
    (let (($x3238 (= V5_0 ?x3303)))
    (let (($x156 (not R_E1_V5)))
    (let (($x3916 (or $x156 $x3238)))
    (let (($x3815 (= V2_0 ?x2455)))
    (let (($x154 (not R_E1_V2)))
    (let (($x3959 (or $x154 $x3815)))
    (let (($x2766 (and $x3959 $x3916 $x4054)))
    (let (($x2517 (not $x2766)))
    (let (($x3400 (or $x2517 $x4160)))
    (let (($x3002 (= E1_!2446 E1_!2473)))
    (let (($x3535 (or $x2517 $x3002)))
    (let (($x3329 (= S1_V2_!2470 S1_V2_!2449)))
    (let (($x3299 (or $x4279 $x3329)))
    (let (($x3800 (= S1_V2_!2459 S1_V2_!2470)))
    (let (($x4137 (= ?x2923 V4_0)))
    (let (($x2809 (or $x210 $x4137)))
    (let (($x3316 (= ?x2614 V5_0)))
    (let (($x4106 (or $x208 $x3316)))
    (let (($x3657 (= ?x2846 V2_0)))
    (let (($x4060 (or $x206 $x3657)))
    (let (($x4170 (= ?x2870 V3_0)))
    (let (($x3831 (or $x204 $x4170)))
    (let ((?x4067 (+ (- 1) E1_!2467)))
    (let (($x4068 (= ?x2771 ?x4067)))
    (let (($x3332 (or $x202 $x4068)))
    (let (($x4166 (and $x3332 $x3831 $x4060 $x4106 $x2809)))
    (let (($x2976 (not $x4166)))
    (let (($x3977 (or $x2976 $x3800)))
    (let (($x3863 (= S1_V2_!2459 S1_V2_!2449)))
    (let ((?x3823 (+ (- 1) E1_!2446)))
    (let (($x3920 (= ?x2771 ?x3823)))
    (let (($x3845 (or $x202 $x3920)))
    (let (($x3877 (and $x3845 $x3831 $x4060 $x4106 $x2809)))
    (let (($x3922 (not $x3877)))
    (let (($x3892 (or $x3922 $x3863)))
    (let (($x4032 (= S1_V3_!2469 S1_V3_!2448)))
    (let (($x4089 (or $x4279 $x4032)))
    (let (($x3549 (= S1_V3_!2458 S1_V3_!2469)))
    (let (($x3903 (or $x2976 $x3549)))
    (let (($x2935 (= S1_V3_!2458 S1_V3_!2448)))
    (let (($x2862 (or $x3922 $x2935)))
    (let (($x3408 (= S2_V5_!2482 S2_V5_!2477)))
    (let (($x3064 (or $x4066 $x3408)))
    (let (($x3190 (= S2_V5_!2465 S2_V5_!2482)))
    (let (($x3001 (or $x3081 $x3190)))
    (let (($x3429 (= S2_V5_!2465 S2_V5_!2477)))
    (let (($x3585 (or $x3555 $x3429)))
    (let (($x3388 (= S2_V5_!2455 S2_V5_!2482)))
    (let (($x2544 (or $x3291 $x3388)))
    (let (($x3526 (= S2_V5_!2455 S2_V5_!2477)))
    (let (($x3298 (or $x3847 $x3526)))
    (let (($x3314 (= S2_V5_!2455 S2_V5_!2465)))
    (let (($x3163 (or $x3289 $x3314)))
    (let (($x3053 (= S1_V1_!2468 S1_V1_!2457)))
    (let (($x3138 (or $x3803 $x3053)))
    (let (($x3247 (= S1_V1_!2468 S1_V1_!2447)))
    (let (($x3234 (or $x4279 $x3247)))
    (let (($x3147 (= S1_V1_!2457 S1_V1_!2447)))
    (let (($x3193 (or $x3922 $x3147)))
    (let
    (($x2690
      (and $x3193 $x3234 $x3138 $x3163 $x3298 $x2544 $x3585 $x3001 $x3064
      $x2862 $x3903 $x4089 $x3892 $x3977 $x3299 $x3535 $x3835 $x3400 $x3124
      $x3342 $x3304 $x4095 $x4103 $x3164 $x4059 $x4277 $x3805 $x3881 $x3200
      $x3014 $x4131 $x3105 $x3504 $x3933 $x3500 $x3926 $x2734 $x3970 $x3888
      $x3069 $x3162 $x4079 $x3009 $x3021 $x3237 $x2570 $x3084 $x2621 $x2609
      $x2199 $x3256 $x2811 $x2661 $x3240 $x3459 $x2550)))
    (let (($x3422 (not $x2690))) (or $x3422 $x3094 $x3093)))))))))))))))))))))))))))))))))))))))))))))))))))))))))))))))))))))))))))))))))))))))))))))))))))))))))))))))))))))))))))))))))))))))))))))))))))))))))))))))))))))))))))))))))))))))))))))))))))))))))))))))))))))))))))))))))))))))))))))))))))))))))))))))))))))))))))))))))))))))))))))))))))))))))))))))))))))))))))))))))))))))))))))))))))))))))))))))))))))))))))))))))))))))))))))))
 (let (($x90 (and W_S2_V5 R_E1_V5)))
 (let (($x89 (and W_S2_V2 R_E1_V2)))
 (let (($x3080 (or $x89 $x90 R_E1_V4)))
 (let (($x2925 (not $x3080)))
 (let (($x3320 (= DISJ_W_S2_R_E1 $x2925)))
 (let (($x81 (and W_S2_V5 R_S2_V5)))
 (let (($x80 (and W_S2_V2 R_S2_V2)))
 (let (($x79 (and W_S2_V3 R_S2_V3)))
 (let (($x78 (and W_S2_V1 R_S2_V1)))
 (let (($x113 (or $x78 $x79 $x80 $x81 R_S2_V4)))
 (let (($x114 (not $x113)))
 (let (($x115 (= DISJ_W_S2_R_S2 $x114)))
 (let (($x72 (and W_S2_V5 R_S1_V5)))
 (let (($x71 (and W_S2_V2 R_S1_V2)))
 (let (($x70 (and W_S2_V3 R_S1_V3)))
 (let (($x69 (and W_S2_V1 R_S1_V1)))
 (let (($x110 (or $x69 $x70 $x71 $x72 R_S1_V4)))
 (let (($x111 (not $x110)))
 (let (($x112 (= DISJ_W_S2_R_S1 $x111)))
 (let (($x63 (and W_S1_V5 W_S2_V5)))
 (let (($x2998 (or W_S2_V3 $x63 W_S1_V4)))
 (let (($x3158 (not $x2998)))
 (let (($x3189 (= DISJ_W_S1_W_S2 $x3158)))
 (let (($x152 (not R_E1_V3)))
 (let (($x37 (and W_S1_V4 R_S2_V4)))
 (let (($x35 (and W_S1_V5 R_S2_V5)))
 (let (($x3066 (or R_S2_V3 $x35 $x37)))
 (let (($x2996 (not $x3066)))
 (let (($x2448 (= DISJ_W_S1_R_S2 $x2996)))
 (let (($x23 (and W_S1_V4 R_S1_V4)))
 (let (($x20 (and W_S1_V5 R_S1_V5)))
 (let (($x3022 (or R_S1_V3 $x20 $x23)))
 (let (($x3405 (not $x3022)))
 (let (($x2636 (= DISJ_W_S1_R_S1 $x3405)))
 (let (($x202 (not R_S1_V1)))
 (let (($x4092 (and $x202 DISJ_W_S1_R_S1)))
 (let (($x2259 (not W_S2_V2)))
 (let (($x2253 (not W_S2_V1)))
 (let (($x3338 (and $x2253 $x2259)))
 (let (($x3173 (and $x2259 DISJ_W_S2_R_S1 DISJ_W_S1_R_S1)))
 (let (($x3621 (or $x3173 $x3338 $x4092)))
 (let (($x2209 (not W_S1_V2)))
 (let (($x2206 (not W_S1_V1)))
 (let (($x150 (not R_E1_V1)))
 (and DISJ_W_S1_R_E1 $x150 $x2206 $x2209 $x3621 W_S1_V3 W_S2_V4 $x2636 $x2448
 $x152 $x3189 $x112 $x115 $x3320 $x3462 $x3046 $x2796)))))))))))))))))))))))))))))))))))))))))))))))))))
(assert (let (($x3035 (and DISJ_W_S2_R_S1 DISJ_W_S2_R_S2))) (not $x3035)))
(check-sat)
(exit)

